Route #1: 22 24 6 26 42 9 
Route #2: 20 21 18 1 16 34 39 17 
Route #3: 4 35 40 25 32 29 27 41 
Route #4: 30 13 11 3 
Route #5: 5 33 19 14 28 37 23 2 12 
Route #6: 15 36 8 31 38 10 7 
cost 801.552
execution_time 12.668
